10  5
 3  5  0  8  2  8  1  8  4 14  21 193  10
 0  6  3 11  2  8  1 10  4 10  19 178  10
 0  8  1 10  2 13  3  3  4 16   1 191   5
 1  4  0  9  2  9  3  9  4 14  37 189  10
 0  6  3  5  2 15  1  9  4 11  11 163   5
 0  8  1 10  2 12  3 11  4 16  32 198   5
 1 11  0 10  2 12  3  5  4 15   1 173  10
 1  4  0  8  2 16  3 11  4 15  20 160  10
 1  4  0 10  2 16  3 11  4  9  19 178   5
 0  9  1  8  2 13  3  7  4 13  26 166   5
